lpmln2cl
Clingo executed with command:
clingo /home/apradhan/proj/fact_check_kb/out.txt dataset/author/evidence/local/rudik/topset_conf_0k/400_unique.txt 
clingo version 4.5.4
Reading from ...me/apradhan/proj/fact_check_kb/out.txt ...
Solving...
Answer: 1
birthPlace("Norbert_Glanzberg","Poland") birthPlace("Norbert_Glanzberg","Ukraine") birthPlace("Norbert_Glanzberg","Rohatyn") birthPlace("Curd_Jürgens","Q2299008") birthPlace("Curd_Jürgens","German_Empire") birthPlace("Curd_Jürgens","Thalkirchen-Obersendling-Forstenried-Fürstenried-Solln") birthPlace("Curd_Jürgens","Kingdom_of_Bavaria") birthPlace("Carmine_Gallone","Italy") birthPlace("Carmine_Gallone","Liguria") birthPlace("Carmine_Gallone","Taggia") birthPlace("Jules_Verne","Nantes") birthPlace("Jules_Verne","Bourbon_Restoration") deathPlace("Norbert_Glanzberg","France") deathPlace("Norbert_Glanzberg","Neuilly-sur-Seine") deathPlace("Norbert_Glanzberg","Paris") deathPlace("Curd_Jürgens","Vienna") deathPlace("Carmine_Gallone","Frascati") deathPlace("Carmine_Gallone","Latium") deathPlace("Jules_Verne","Amiens") deathPlace("Jules_Verne","French_Third_Republic") activeYearsStartYear("Norbert_Glanzberg","1930") activeYearsStartYear("Curd_Jürgens","1935") activeYearsStartYear("Jules_Verne","1850") birthYear("Curd_Jürgens","1915") birthYear("Carmine_Gallone","1885") deathYear("Curd_Jürgens","1982") deathYear("Carmine_Gallone","1973") genre("Norbert_Glanzberg","Film_Scores") genre("Norbert_Glanzberg","Classical_music") genre("Norbert_Glanzberg","Popular_songs") birthPlace("Michel_Verne","Paris") deathPlace("Michel_Verne","Toulon") numberOfPages("Journey_to_the_Center_of_the_Earth","183") author("The_Mysterious_Island","Jules_Verne") author("Five_Weeks_in_a_Balloon","Jules_Verne") author("Journey_to_the_Center_of_the_Earth","Jules_Verne") author("From_the_Earth_to_the_Moon","Jules_Verne") author("Around_the_World_in_Eighty_Days","Jules_Verne") author("Twenty_Thousand_Leagues_Under_the_Sea","Jules_Verne") literaryGenre("The_Mysterious_Island","Adventure_novel") literaryGenre("Five_Weeks_in_a_Balloon","Adventure_novel") literaryGenre("Journey_to_the_Center_of_the_Earth","Science_fiction") literaryGenre("Journey_to_the_Center_of_the_Earth","Adventure_novel") literaryGenre("From_the_Earth_to_the_Moon","Science_fiction") literaryGenre("Around_the_World_in_Eighty_Days","Adventure_novel") literaryGenre("Twenty_Thousand_Leagues_Under_the_Sea","Adventure_fiction") previousWork("The_Mysterious_Island","Around_the_World_in_Eighty_Days_(book)") previousWork("Journey_to_the_Center_of_the_Earth","The_Adventures_of_Captain_Hatteras") previousWork("Around_the_World_in_Eighty_Days","The_Fur_Country") previousWork("Twenty_Thousand_Leagues_Under_the_Sea","In_Search_of_the_Castaways") publisher("The_Mysterious_Island","Pierre-Jules_Hetzel") publisher("Five_Weeks_in_a_Balloon","Pierre-Jules_Hetzel") publisher("Journey_to_the_Center_of_the_Earth","Pierre-Jules_Hetzel") publisher("From_the_Earth_to_the_Moon","Pierre-Jules_Hetzel") publisher("Around_the_World_in_Eighty_Days","Pierre-Jules_Hetzel") publisher("Twenty_Thousand_Leagues_Under_the_Sea","Pierre-Jules_Hetzel") series("The_Mysterious_Island","Voyages_Extraordinaires") series("Five_Weeks_in_a_Balloon","Voyages_Extraordinaires") series("Journey_to_the_Center_of_the_Earth","Voyages_Extraordinaires") series("From_the_Earth_to_the_Moon","Voyages_Extraordinaires") series("Around_the_World_in_Eighty_Days","Voyages_Extraordinaires") series("Twenty_Thousand_Leagues_Under_the_Sea","Voyages_Extraordinaires") subsequentWork("The_Mysterious_Island","The_Survivors_of_the_Chancellor") subsequentWork("Five_Weeks_in_a_Balloon","The_Adventures_of_Captain_Hatteras") subsequentWork("Journey_to_the_Center_of_the_Earth","From_the_Earth_to_the_Moon") subsequentWork("Around_the_World_in_Eighty_Days","The_Mysterious_Island") subsequentWork("Twenty_Thousand_Leagues_Under_the_Sea","Around_the_Moon")
SATISFIABLE

Models       : 1     
Calls        : 1
Time         : 0.007s (Solving: 0.00s 1st Model: 0.00s Unsat: 0.00s)
CPU Time     : 0.000s
